numOfMachines = 4;
numOfRobots = 2;
numOfJobs = 6;
maxOperations = 3;
operationsCount = [3,3,3,3,3,3];

operation = [
[<0,0,0>,<1,9,0>,<2,11,0>,<4,7,1>],
[<0,0,0>,<1,19,0>,<2,20,0>,<4,13,0>],
[<0,0,0>,<2,14,0>,<3,20,1>,<4,9,0>],
[<0,0,0>,<2,14,0>,<3,20,0>,<4,9,0>],
[<0,0,0>,<1,11,0>,<3,16,1>,<4,8,0>],
[<0,0,0>,<1,10,0>,<3,12,0>,<4,10,0>]
];